instances/shortest_path/discrete/shortest_path_6_7.lp
\ Model nohadani_6_7
\ LP format - for model browsing. Use MPS format to capture full model detail.
\ Signature: 0x9d6f60db6d04e09d
Minimize
  54.12023651093924 y[0,1] + 63.81222453417526 y[0,3]
   + 67.1863081289633 y[0,4] + 55.17245689653489 y[0,5]
   + 54.12023651093924 y[1,0] + 44.77722635447622 y[1,2]
   + 19.1049731745428 y[1,3] + 61.03277807866851 y[1,4]
   + 25.94224354214569 y[1,5] + 44.77722635447622 y[2,1]
   + 62.0966987850401 y[2,3] + 63.81222453417526 y[3,0]
   + 19.1049731745428 y[3,1] + 62.0966987850401 y[3,2]
   + 48.27007354458868 y[3,4] + 14.56021977856104 y[3,5]
   + 67.1863081289633 y[4,0] + 61.03277807866851 y[4,1]
   + 48.27007354458868 y[4,3] + 35.4682957019364 y[4,5]
   + 55.17245689653489 y[5,0] + 25.94224354214569 y[5,1]
   + 14.56021977856104 y[5,3] + 35.4682957019364 y[5,4] + x[0,1] + x[0,3]
   + x[0,4] + x[0,5] + x[1,0] + x[1,2] + x[1,3] + x[1,4] + x[1,5] + x[2,1]
   + x[2,3] + x[3,0] + x[3,1] + x[3,2] + x[3,4] + x[3,5] + x[4,0] + x[4,1]
   + x[4,3] + x[4,5] + x[5,0] + x[5,1] + x[5,3] + x[5,4]
   + 5.412023651093924 r[0,1] + 6.381222453417527 r[0,3]
   + 6.718630812896331 r[0,4] + 5.517245689653489 r[0,5]
   + 5.412023651093924 r[1,0] + 4.477722635447623 r[1,2]
   + 1.91049731745428 r[1,3] + 6.103277807866852 r[1,4]
   + 2.594224354214569 r[1,5] + 4.477722635447623 r[2,1]
   + 6.20966987850401 r[2,3] + 6.381222453417527 r[3,0]
   + 1.91049731745428 r[3,1] + 6.20966987850401 r[3,2]
   + 4.827007354458869 r[3,4] + 1.456021977856104 r[3,5]
   + 6.718630812896331 r[4,0] + 6.103277807866852 r[4,1]
   + 4.827007354458869 r[4,3] + 3.54682957019364 r[4,5]
   + 5.517245689653489 r[5,0] + 2.594224354214569 r[5,1]
   + 1.456021977856104 r[5,3] + 3.54682957019364 r[5,4]
Subject To
 flow_cons_inner_nodes[0]: - y[0,1] - y[0,3] - y[0,4] - y[0,5] + y[1,0]
   + y[3,0] + y[4,0] + y[5,0] = 0
 flow_cons_inner_nodes[1]: y[0,1] - y[1,0] - y[1,2] - y[1,3] - y[1,4]
   - y[1,5] + y[2,1] + y[3,1] + y[4,1] + y[5,1] = 0
 flow_cons_inner_nodes[3]: y[0,3] + y[1,3] + y[2,3] - y[3,0] - y[3,1]
   - y[3,2] - y[3,4] - y[3,5] + y[4,3] + y[5,3] = 0
 flow_cons_inner_nodes[5]: y[0,5] + y[1,5] + y[3,5] + y[4,5] - y[5,0]
   - y[5,1] - y[5,3] - y[5,4] = 0
 flow_cons_source: - y[1,2] + y[2,1] + y[2,3] - y[3,2] = 1
 flow_cons_target: y[0,4] + y[1,4] + y[3,4] - y[4,0] - y[4,1] - y[4,3]
   - y[4,5] + y[5,4] = 1
 primal_lower: 4.279467426308145 x[0,1] + 2.988413934133127 x[0,3]
   + 1.066968760177156 x[0,4] + 3.424726801582529 x[0,5]
   + 0.1444710545643727 x[1,0] + 3.641864007923282 x[1,2]
   + 1.478279361143797 x[1,3] + 2.367808028119281 x[1,4]
   + 1.415819206698201 x[1,5] + 3.186777379961968 x[2,1]
   + 0.3870487242824174 x[2,3] + 2.951162637746332 x[3,0]
   + 3.424944955869051 x[3,1] + 3.23713151130518 x[3,2]
   + 0.5900645854122928 x[3,4] + 2.307601597682476 x[3,5]
   + 1.697991769770891 x[4,0] + 1.513253822638475 x[4,1]
   + 3.413222703963058 x[4,3] + 2.193768161128759 x[4,5]
   + 4.065955501617737 x[5,0] + 2.193216530528194 x[5,1]
   + 3.795072050024854 x[5,3] + 4.518435051367179 x[5,4] + 95 u[0,1]
   + 95 u[0,3] + u[0,4] + 70 u[0,5] + 63 u[1,0] + 9 u[1,2] + 28 u[1,3]
   + 3 u[1,4] + 40 u[1,5] + 89 u[2,1] + 39 u[2,3] + 2 u[3,0] + 95 u[3,1]
   + 3 u[3,2] + 72 u[3,4] + 48 u[3,5] + 68 u[4,0] + 99 u[4,1] + 92 u[4,3]
   + 29 u[4,5] + 48 u[5,0] + 23 u[5,1] + 67 u[5,3] + 26 u[5,4] <= 109
 mccormick1[0,1]: - u[0,1] + r[0,1] <= 0
 mccormick1[0,3]: - u[0,3] + r[0,3] <= 0
 mccormick1[0,4]: - u[0,4] + r[0,4] <= 0
 mccormick1[0,5]: - u[0,5] + r[0,5] <= 0
 mccormick1[1,0]: - u[1,0] + r[1,0] <= 0
 mccormick1[1,2]: - u[1,2] + r[1,2] <= 0
 mccormick1[1,3]: - u[1,3] + r[1,3] <= 0
 mccormick1[1,4]: - u[1,4] + r[1,4] <= 0
 mccormick1[1,5]: - u[1,5] + r[1,5] <= 0
 mccormick1[2,1]: - u[2,1] + r[2,1] <= 0
 mccormick1[2,3]: - u[2,3] + r[2,3] <= 0
 mccormick1[3,0]: - u[3,0] + r[3,0] <= 0
 mccormick1[3,1]: - u[3,1] + r[3,1] <= 0
 mccormick1[3,2]: - u[3,2] + r[3,2] <= 0
 mccormick1[3,4]: - u[3,4] + r[3,4] <= 0
 mccormick1[3,5]: - u[3,5] + r[3,5] <= 0
 mccormick1[4,0]: - u[4,0] + r[4,0] <= 0
 mccormick1[4,1]: - u[4,1] + r[4,1] <= 0
 mccormick1[4,3]: - u[4,3] + r[4,3] <= 0
 mccormick1[4,5]: - u[4,5] + r[4,5] <= 0
 mccormick1[5,0]: - u[5,0] + r[5,0] <= 0
 mccormick1[5,1]: - u[5,1] + r[5,1] <= 0
 mccormick1[5,3]: - u[5,3] + r[5,3] <= 0
 mccormick1[5,4]: - u[5,4] + r[5,4] <= 0
 mccormick2[0,1]: - y[0,1] + r[0,1] <= 0
 mccormick2[0,3]: - y[0,3] + r[0,3] <= 0
 mccormick2[0,4]: - y[0,4] + r[0,4] <= 0
 mccormick2[0,5]: - y[0,5] + r[0,5] <= 0
 mccormick2[1,0]: - y[1,0] + r[1,0] <= 0
 mccormick2[1,2]: - y[1,2] + r[1,2] <= 0
 mccormick2[1,3]: - y[1,3] + r[1,3] <= 0
 mccormick2[1,4]: - y[1,4] + r[1,4] <= 0
 mccormick2[1,5]: - y[1,5] + r[1,5] <= 0
 mccormick2[2,1]: - y[2,1] + r[2,1] <= 0
 mccormick2[2,3]: - y[2,3] + r[2,3] <= 0
 mccormick2[3,0]: - y[3,0] + r[3,0] <= 0
 mccormick2[3,1]: - y[3,1] + r[3,1] <= 0
 mccormick2[3,2]: - y[3,2] + r[3,2] <= 0
 mccormick2[3,4]: - y[3,4] + r[3,4] <= 0
 mccormick2[3,5]: - y[3,5] + r[3,5] <= 0
 mccormick2[4,0]: - y[4,0] + r[4,0] <= 0
 mccormick2[4,1]: - y[4,1] + r[4,1] <= 0
 mccormick2[4,3]: - y[4,3] + r[4,3] <= 0
 mccormick2[4,5]: - y[4,5] + r[4,5] <= 0
 mccormick2[5,0]: - y[5,0] + r[5,0] <= 0
 mccormick2[5,1]: - y[5,1] + r[5,1] <= 0
 mccormick2[5,3]: - y[5,3] + r[5,3] <= 0
 mccormick2[5,4]: - y[5,4] + r[5,4] <= 0
 mccormick3[0,1]: - y[0,1] - u[0,1] + r[0,1] >= -1
 mccormick3[0,3]: - y[0,3] - u[0,3] + r[0,3] >= -1
 mccormick3[0,4]: - y[0,4] - u[0,4] + r[0,4] >= -1
 mccormick3[0,5]: - y[0,5] - u[0,5] + r[0,5] >= -1
 mccormick3[1,0]: - y[1,0] - u[1,0] + r[1,0] >= -1
 mccormick3[1,2]: - y[1,2] - u[1,2] + r[1,2] >= -1
 mccormick3[1,3]: - y[1,3] - u[1,3] + r[1,3] >= -1
 mccormick3[1,4]: - y[1,4] - u[1,4] + r[1,4] >= -1
 mccormick3[1,5]: - y[1,5] - u[1,5] + r[1,5] >= -1
 mccormick3[2,1]: - y[2,1] - u[2,1] + r[2,1] >= -1
 mccormick3[2,3]: - y[2,3] - u[2,3] + r[2,3] >= -1
 mccormick3[3,0]: - y[3,0] - u[3,0] + r[3,0] >= -1
 mccormick3[3,1]: - y[3,1] - u[3,1] + r[3,1] >= -1
 mccormick3[3,2]: - y[3,2] - u[3,2] + r[3,2] >= -1
 mccormick3[3,4]: - y[3,4] - u[3,4] + r[3,4] >= -1
 mccormick3[3,5]: - y[3,5] - u[3,5] + r[3,5] >= -1
 mccormick3[4,0]: - y[4,0] - u[4,0] + r[4,0] >= -1
 mccormick3[4,1]: - y[4,1] - u[4,1] + r[4,1] >= -1
 mccormick3[4,3]: - y[4,3] - u[4,3] + r[4,3] >= -1
 mccormick3[4,5]: - y[4,5] - u[4,5] + r[4,5] >= -1
 mccormick3[5,0]: - y[5,0] - u[5,0] + r[5,0] >= -1
 mccormick3[5,1]: - y[5,1] - u[5,1] + r[5,1] >= -1
 mccormick3[5,3]: - y[5,3] - u[5,3] + r[5,3] >= -1
 mccormick3[5,4]: - y[5,4] - u[5,4] + r[5,4] >= -1
Bounds
Binaries
 y[0,1] y[0,3] y[0,4] y[0,5] y[1,0] y[1,2] y[1,3] y[1,4] y[1,5] y[2,1]
 y[2,3] y[3,0] y[3,1] y[3,2] y[3,4] y[3,5] y[4,0] y[4,1] y[4,3] y[4,5]
 y[5,0] y[5,1] y[5,3] y[5,4] x[0,1] x[0,3] x[0,4] x[0,5] x[1,0] x[1,2]
 x[1,3] x[1,4] x[1,5] x[2,1] x[2,3] x[3,0] x[3,1] x[3,2] x[3,4] x[3,5]
 x[4,0] x[4,1] x[4,3] x[4,5] x[5,0] x[5,1] x[5,3] x[5,4] u[0,1] u[0,3]
 u[0,4] u[0,5] u[1,0] u[1,2] u[1,3] u[1,4] u[1,5] u[2,1] u[2,3] u[3,0]
 u[3,1] u[3,2] u[3,4] u[3,5] u[4,0] u[4,1] u[4,3] u[4,5] u[5,0] u[5,1]
 u[5,3] u[5,4] r[0,1] r[0,3] r[0,4] r[0,5] r[1,0] r[1,2] r[1,3] r[1,4]
 r[1,5] r[2,1] r[2,3] r[3,0] r[3,1] r[3,2] r[3,4] r[3,5] r[4,0] r[4,1]
 r[4,3] r[4,5] r[5,0] r[5,1] r[5,3] r[5,4]
End
